306 5
10 10 10 10 10 

0 0 0 0 0 0 5 2 14 26 38 50 
0 0 0 0 0 0 1 3 
9 0 3 0 0 0 2 12 4 
1 0 7 0 0 0 2 8 5 
6 0 5 0 0 0 2 6 238 
6 0 10 0 0 0 1 7 
10 0 9 0 0 0 2 11 9 
7 0 9 0 0 0 2 11 10 
10 0 8 0 0 0 1 10 
4 0 7 0 0 0 1 13 
8 0 7 0 0 0 1 13 
8 0 10 0 0 0 1 13 
0 0 0 0 0 0 1 62 
0 0 0 0 0 0 1 15 
2 0 0 4 0 0 2 18 16 
8 0 0 5 0 0 1 17 
6 0 0 9 0 0 2 21 19 
9 0 0 4 0 0 2 21 20 
2 0 0 10 0 0 1 20 
5 0 0 10 0 0 2 24 22 
7 0 0 10 0 0 2 24 22 
3 0 0 6 0 0 2 23 35 
1 0 0 9 0 0 1 25 
1 0 0 8 0 0 1 25 
0 0 0 0 0 0 1 62 
0 0 0 0 0 0 2 27 28 
4 0 0 0 4 0 3 34 30 29 
2 0 0 0 4 0 3 34 30 226 
2 0 0 0 5 0 1 31 
10 0 0 0 5 0 1 32 
10 0 0 0 10 0 1 32 
1 0 0 0 9 0 1 33 
2 0 0 0 10 0 1 35 
6 0 0 0 10 0 1 35 
8 0 0 0 9 0 1 36 
1 0 0 0 9 0 1 37 
0 0 0 0 0 0 1 62 
0 0 0 0 0 0 2 39 42 
7 2 0 0 0 0 1 40 
7 8 0 0 0 0 1 41 
7 9 0 0 0 0 2 45 43 
9 7 0 0 0 0 2 45 43 
10 10 0 0 0 0 1 44 
10 7 0 0 0 0 2 48 46 
3 10 0 0 0 0 2 48 46 
6 8 0 0 0 0 2 47 55 
4 10 0 0 0 0 1 49 
4 4 0 0 0 0 1 49 
0 0 0 0 0 0 1 62 
0 0 0 0 0 0 2 51 53 
6 2 0 0 0 0 2 52 211 
4 7 0 0 0 0 2 55 54 
2 8 0 0 0 0 2 55 54 
9 5 0 0 0 0 2 59 56 
4 7 0 0 0 0 2 59 56 
1 10 0 0 0 0 1 57 
8 10 0 0 0 0 1 58 
2 10 0 0 0 0 1 60 
9 6 0 0 0 0 1 60 
1 10 0 0 0 0 1 61 
0 0 0 0 0 0 1 62 
0 0 0 0 0 0 5 63 75 87 99 111 
0 0 0 0 0 0 1 64 
6 3 0 0 0 0 2 68 65 
8 7 0 0 0 0 1 66 
1 10 0 0 0 0 1 67 
2 7 0 0 0 0 2 70 69 
4 5 0 0 0 0 2 70 69 
9 10 0 0 0 0 2 73 71 
5 8 0 0 0 0 2 73 72 
10 6 0 0 0 0 2 72 134 
9 10 0 0 0 0 1 74 
7 9 0 0 0 0 1 74 
0 0 0 0 0 0 1 123 
0 0 0 0 0 0 3 76 79 81 
8 0 0 0 0 2 2 85 77 
5 0 0 0 0 5 1 78 
9 0 0 0 0 5 1 80 
4 0 0 0 0 9 1 80 
5 0 0 0 0 9 1 82 
7 0 0 0 0 10 2 82 170 
7 0 0 0 0 10 1 83 
8 0 0 0 0 5 1 84 
8 0 0 0 0 10 1 86 
8 0 0 0 0 10 1 86 
0 0 0 0 0 0 1 123 
0 0 0 0 0 0 1 88 
3 0 0 2 0 0 1 89 
5 0 0 8 0 0 2 91 90 
10 0 0 10 0 0 3 97 94 92 
2 0 0 8 0 0 2 97 95 
3 0 0 8 0 0 1 93 
1 0 0 9 0 0 1 95 
2 0 0 10 0 0 1 95 
9 0 0 8 0 0 2 96 105 
10 0 0 7 0 0 1 98 
2 0 0 5 0 0 1 98 
0 0 0 0 0 0 1 123 
0 0 0 0 0 0 3 100 101 188 
10 0 0 2 0 0 3 108 106 103 
8 0 0 7 0 0 2 106 102 
10 0 0 7 0 0 1 103 
3 0 0 6 0 0 1 104 
10 0 0 10 0 0 1 105 
1 0 0 10 0 0 1 107 
2 0 0 9 0 0 1 107 
2 0 0 10 0 0 1 109 
8 0 0 9 0 0 1 109 
9 0 0 5 0 0 1 110 
0 0 0 0 0 0 1 123 
0 0 0 0 0 0 2 112 115 
2 0 0 0 0 3 2 119 113 
1 0 0 0 0 6 2 114 180 
4 0 0 0 0 7 2 121 116 
10 0 0 0 0 9 2 119 116 
5 0 0 0 0 8 1 117 
3 0 0 0 0 10 1 118 
9 0 0 0 0 10 1 120 
10 0 0 0 0 3 1 120 
5 0 0 0 0 10 1 122 
10 0 0 0 0 9 1 122 
0 0 0 0 0 0 1 123 
0 0 0 0 0 0 5 124 136 148 160 172 
0 0 0 0 0 0 2 125 127 
8 0 0 1 0 0 2 130 126 
2 0 0 6 0 0 1 128 
4 0 0 6 0 0 2 133 130 
1 0 0 10 0 0 2 129 254 
9 0 0 7 0 0 2 133 131 
10 0 0 8 0 0 1 131 
1 0 0 10 0 0 1 132 
6 0 0 8 0 0 1 134 
4 0 0 10 0 0 1 134 
5 0 0 9 0 0 1 135 
0 0 0 0 0 0 1 184 
0 0 0 0 0 0 2 137 139 
8 0 0 0 8 0 2 146 138 
7 0 0 0 3 0 1 140 
8 0 0 0 9 0 4 146 145 142 201 
5 0 0 0 10 0 1 141 
7 0 0 0 7 0 2 145 142 
6 0 0 0 9 0 1 143 
5 0 0 0 6 0 1 144 
5 0 0 0 9 0 1 147 
8 0 0 0 6 0 1 147 
8 0 0 0 8 0 1 147 
0 0 0 0 0 0 1 184 
0 0 0 0 0 0 1 149 
7 0 0 6 0 0 2 152 150 
9 0 0 10 0 0 2 151 292 
7 0 0 10 0 0 2 156 153 
5 0 0 4 0 0 2 158 153 
5 0 0 10 0 0 1 154 
7 0 0 10 0 0 1 155 
5 0 0 6 0 0 1 157 
8 0 0 5 0 0 1 157 
1 0 0 9 0 0 1 159 
4 0 0 5 0 0 1 159 
0 0 0 0 0 0 1 184 
0 0 0 0 0 0 2 161 164 
1 0 0 0 3 0 1 162 
4 0 0 0 10 0 1 163 
5 0 0 0 9 0 2 170 165 
4 0 0 0 4 0 2 168 167 
2 0 0 0 6 0 1 166 
8 0 0 0 10 0 1 167 
2 0 0 0 9 0 1 169 
5 0 0 0 10 0 1 169 
6 0 0 0 5 0 2 171 291 
10 0 0 0 9 0 1 171 
0 0 0 0 0 0 1 184 
0 0 0 0 0 0 2 173 180 
4 0 3 0 0 0 3 182 177 174 
1 0 6 0 0 0 1 175 
4 0 7 0 0 0 1 176 
7 0 8 0 0 0 1 178 
9 0 4 0 0 0 2 178 296 
6 0 7 0 0 0 1 179 
2 0 10 0 0 0 1 181 
2 0 10 0 0 0 1 181 
7 0 10 0 0 0 1 183 
5 0 10 0 0 0 1 183 
0 0 0 0 0 0 1 184 
0 0 0 0 0 0 5 185 197 209 221 233 
0 0 0 0 0 0 1 186 
3 0 0 0 0 4 2 195 187 
7 0 0 0 0 5 2 194 188 
5 0 0 0 0 10 1 189 
5 0 0 0 0 6 2 193 190 
2 0 0 0 0 10 1 191 
4 0 0 0 0 4 1 192 
9 0 0 0 0 9 2 196 298 
8 0 0 0 0 10 1 196 
7 0 0 0 0 10 1 196 
7 0 0 0 0 7 1 196 
0 0 0 0 0 0 1 245 
0 0 0 0 0 0 1 198 
9 0 0 0 1 0 1 199 
8 0 0 0 10 0 1 200 
6 0 0 0 7 0 1 201 
8 0 0 0 10 0 2 204 202 
8 0 0 0 10 0 3 207 203 211 
7 0 0 0 8 0 2 206 205 
8 0 0 0 9 0 2 206 205 
6 0 0 0 4 0 1 208 
5 0 0 0 10 0 1 208 
6 0 0 0 6 0 1 208 
0 0 0 0 0 0 1 245 
0 0 0 0 0 0 1 210 
10 0 3 0 0 0 3 217 214 211 
3 0 5 0 0 0 1 212 
8 0 10 0 0 0 2 215 213 
1 0 9 0 0 0 1 216 
8 0 6 0 0 0 1 215 
5 0 5 0 0 0 1 218 
1 0 10 0 0 0 1 218 
3 0 10 0 0 0 2 218 288 
2 0 10 0 0 0 1 219 
4 0 7 0 0 0 1 220 
0 0 0 0 0 0 1 245 
0 0 0 0 0 0 1 222 
8 0 0 0 4 0 2 226 223 
4 0 0 0 9 0 2 231 224 
2 0 0 0 10 0 1 225 
5 0 0 0 9 0 2 230 227 
10 0 0 0 9 0 2 231 230 
9 0 0 0 3 0 1 228 
10 0 0 0 10 0 1 229 
7 0 0 0 6 0 1 232 
1 0 0 0 10 0 1 232 
3 0 0 0 5 0 1 232 
0 0 0 0 0 0 1 245 
0 0 0 0 0 0 2 234 237 
7 0 3 0 0 0 1 235 
9 0 7 0 0 0 1 236 
10 0 6 0 0 0 2 241 239 
1 0 10 0 0 0 1 238 
3 0 4 0 0 0 1 239 
5 0 8 0 0 0 1 240 
2 0 9 0 0 0 1 242 
1 0 10 0 0 0 1 242 
8 0 8 0 0 0 1 243 
4 0 10 0 0 0 1 244 
0 0 0 0 0 0 1 245 
0 0 0 0 0 0 5 246 258 270 282 294 
0 0 0 0 0 0 2 247 248 
10 0 0 0 0 3 1 249 
10 0 0 0 0 8 1 249 
1 0 0 0 0 5 2 251 250 
9 0 0 0 0 10 1 252 
7 0 0 0 0 10 1 252 
4 0 0 0 0 10 1 253 
5 0 0 0 0 9 2 255 254 
1 0 0 0 0 7 1 256 
3 0 0 0 0 3 1 256 
9 0 0 0 0 10 1 257 
0 0 0 0 0 0 1 306 
0 0 0 0 0 0 3 259 261 264 
6 0 0 5 0 0 1 260 
6 0 0 6 0 0 2 268 262 
6 0 0 10 0 0 2 268 265 
7 0 0 5 0 0 1 263 
6 0 0 6 0 0 1 265 
5 0 0 9 0 0 1 265 
8 0 0 7 0 0 1 266 
6 0 0 9 0 0 1 267 
3 0 0 10 0 0 1 269 
4 0 0 8 0 0 1 269 
0 0 0 0 0 0 1 306 
0 0 0 0 0 0 2 271 272 
9 0 4 0 0 0 1 273 
10 0 6 0 0 0 1 273 
3 0 6 0 0 0 2 278 274 
5 0 8 0 0 0 1 275 
3 0 10 0 0 0 2 280 276 
9 0 9 0 0 0 1 277 
10 0 4 0 0 0 1 279 
5 0 10 0 0 0 1 280 
9 0 10 0 0 0 1 281 
10 0 8 0 0 0 1 281 
0 0 0 0 0 0 1 306 
0 0 0 0 0 0 2 283 284 
3 0 0 4 0 0 2 292 285 
4 0 0 5 0 0 2 292 286 
6 0 0 8 0 0 1 286 
3 0 0 3 0 0 1 287 
2 0 0 9 0 0 1 288 
9 0 0 10 0 0 2 291 289 
6 0 0 10 0 0 1 290 
4 0 0 10 0 0 1 293 
9 0 0 6 0 0 1 293 
10 0 0 10 0 0 1 293 
0 0 0 0 0 0 1 306 
0 0 0 0 0 0 1 295 
7 0 4 0 0 0 1 296 
8 0 5 0 0 0 3 304 303 297 
3 0 8 0 0 0 1 298 
2 0 8 0 0 0 2 302 299 
10 0 9 0 0 0 1 300 
6 0 10 0 0 0 1 301 
9 0 4 0 0 0 1 305 
8 0 9 0 0 0 1 305 
1 0 10 0 0 0 1 305 
3 0 8 0 0 0 1 305 
0 0 0 0 0 0 1 306 
0 0 0 0 0 0 0 
